MoS2                                    
   1.00000000000000     
     3.1407492830887094    0.0000000000000000    0.0000000000000000
    -1.5703746415443547    2.7199686660880609    0.0000000000000000
     0.0000000000000000    0.0000000000000000   18.1271133422999995
   Mo   S 
     1     2
Direct
 -0.0000000000000000 -0.0000000000000000  0.5000000000000000
  0.6666666870000029  0.3333333429999996  0.5859652351839827
  0.6666666870000029  0.3333333429999996  0.4140347648160173
 
