Si4 C4
1.0
   4.3648783993394993    0.0000000000000000    0.0000000000000000
   0.0000000000000000    4.3539934157999998    0.0000000000000000
   0.0000000000000000    0.0000000000000000    4.3539934157999998
Si C
4 4
direct
   0.2500000000000000    0.2500000000000000    0.2500000000000000 Si
   0.7500000000000000    0.7500000000000000    0.2500000000000000 Si
   0.7500000000000000    0.2500000000000000    0.7500000000000000 Si
   0.2500000000000000    0.7500000000000000    0.7500000000000000 Si
   0.0000000000000000    0.0000000000000000    0.0000000000000000 C
   0.0000000000000000    0.5000000000000000    0.5000000000000000 C
   0.5000000000000000    0.0000000000000000    0.5000000000000000 C
   0.5000000000000000    0.5000000000000000    0.0000000000000000 C
