Si4 C4
1.0
        4.3539934158         0.0000000000         0.0000000000
        0.0000000000         4.3539934158         0.0000000000
        0.0000000000         0.0000000000         4.3539934158
   Si    C
    4    4
Direct
     0.250000000         0.250000000         0.250000000
     0.750000000         0.750000000         0.250000000
     0.750000000         0.250000000         0.750000000
     0.250000000         0.750000000         0.750000000
     0.000000000         0.000000000         0.000000000
     0.000000000         0.500000000         0.500000000
     0.500000000         0.000000000         0.500000000
     0.500000000         0.500000000         0.000000000
